689187
156,73,38,206,42,30,177,162,126,146,66,48,70,139,117,31,62,71,0,35,6,209,182,19,116,15,188,184,207,158,22,198,97,68,225,176,151,121,50,41,159,112,72,208,217,125,69,85,205,135,194,180,172,130,123,187,166,84,122,147,181,60,24,79,131,51,220,58,212,92,167,171,203,1,114,148,157,76,221,40,127,105,140,23,65,215,99,52,91,17,55,53,174,104,201,98,189,218,120,179,81,44,211,229,103,102,186,11,145,87,227,108,185,170,149,89,169,141,3,20,216,152,128,32,223,37,202,5,222,175,16,46,224,47,110,18,133,12,219,29,96,193,164,109,200,9,199,197,190,113,118,192,83,78,94,56,57,138,10,75,28,173,64,153,163,142,196,45,124,226,213,13,119,7,14,137,2,59,136,63,43,4,155,210,144,143,25,21,88,165,95,90,67,8,100,183,115,160,106,195,178,191,36,33,204,74,214,77,54,150,27,49,107,93,34,86,61,101,129,80,39,168,26,111,154,132,228,161,134,82
